20	5
0	5	4	3	2	1	14
1	1	10
2	1	5
3	2	20	17
4	2	9	15
5	2	17	16
6	1	7
7	1	13
8	1	18
9	2	20	19
10	2	8	5
11	1	19
12	2	20	7
13	1	11
14	1	12
15	1	16
16	1	6
17	1	6
18	2	9	15
19	1	21
20	1	21
21	0
0	0	0	0	0	0	0
1	5	0	0	2	2	0
2	10	0	3	2	0	3
3	2	1	3	0	2	1
4	6	2	0	3	0	0
5	5	5	1	3	5	3
6	10	0	0	3	0	0
7	7	1	1	0	0	0
8	9	2	0	2	3	5
9	10	2	0	1	0	0
10	6	0	5	3	0	2
11	6	0	0	1	3	0
12	7	2	0	0	5	4
13	10	4	3	1	5	0
14	4	0	0	0	2	5
15	3	0	0	2	2	0
16	7	0	0	0	4	0
17	6	0	4	3	3	1
18	5	0	0	4	0	1
19	5	0	0	0	2	0
20	3	0	5	0	0	0
21	0	0	0	0	0	0
5	5	5	5	5
